presolving:
(round 1, fast)       0 del vars, 324 del conss, 0 add conss, 0 chg bounds, 0 chg sides, 0 chg coeffs, 0 upgd conss, 0 impls, 12675 clqs
   (0.1s) running MILP presolver
   (0.2s) MILP presolver found nothing
(round 2, exhaustive) 0 del vars, 324 del conss, 0 add conss, 0 chg bounds, 0 chg sides, 0 chg coeffs, 12675 upgd conss, 0 impls, 12675 clqs
   (0.5s) probing: 51/12960 (0.4%) - 0 fixings, 0 aggregations, 0 implications, 0 bound changes
   (0.5s) probing aborted: 50/50 successive totally useless probings
   (0.5s) symmetry computation started: requiring (bin +, int -, cont +), (fixed: bin -, int +, cont -)
   (0.6s) no symmetry present
presolving (3 rounds: 3 fast, 2 medium, 2 exhaustive):
 0 deleted vars, 324 deleted constraints, 0 added constraints, 0 tightened bounds, 0 added holes, 0 changed sides, 0 changed coefficients
 0 implications, 12675 cliques
presolved problem has 12960 variables (12960 bin, 0 int, 0 impl, 0 cont) and 12675 constraints
  12675 constraints of type <setppc>
transformed objective value is always integral (scale: 1)
Presolving Time: 0.55

 time | node  | left  |LP iter|LP it/n|mem/heur|mdpt |vars |cons |rows |cuts |sepa|confs|strbr|  dualbound   | primalbound  |  gap   | compl. 
p 0.7s|     1 |     0 |     0 |     - |  clique|   0 |  12k|  12k|  12k|   0 |  0 |   0 |   0 | 0.000000e+00 | 1.761050e+05 |    Inf | unknown
p 0.9s|     1 |     0 |     0 |     - | vbounds|   0 |  12k|  12k|  12k|   0 |  0 |   0 |   0 | 0.000000e+00 | 8.084000e+04 |    Inf | unknown
p 1.0s|     1 |     0 |     0 |     - | vbounds|   0 |  12k|  12k|  12k|   0 |  0 |   0 |   0 | 0.000000e+00 | 7.580000e+04 |    Inf | unknown
  2.7s|     1 |     0 |  4871 |     - |   119M |   0 |  12k|  12k|  12k|   0 |  0 |   2 |   0 | 5.171973e+04 | 7.580000e+04 |  46.56%| unknown
  3.4s|     1 |     0 |  5349 |     - |   122M |   0 |  12k|  12k|  12k|   1 |  1 |   2 |   0 | 5.175983e+04 | 7.580000e+04 |  46.45%| unknown
  3.9s|     1 |     0 |  5792 |     - |   124M |   0 |  12k|  12k|  12k|   2 |  2 |   2 |   0 | 5.180384e+04 | 7.580000e+04 |  46.32%| unknown
  4.4s|     1 |     0 |  6274 |     - |   125M |   0 |  12k|  12k|  12k|   3 |  3 |   2 |   0 | 5.183652e+04 | 7.580000e+04 |  46.23%| unknown
  4.7s|     1 |     0 |  6379 |     - |   126M |   0 |  12k|  12k|  12k|   4 |  4 |   2 |   0 | 5.185108e+04 | 7.580000e+04 |  46.19%| unknown
o15.8s|     1 |     0 | 30826 |     - |feaspump|   0 |  12k|  12k|  12k|   4 |  6 |   2 |   0 | 5.185108e+04 | 6.691900e+04 |  29.06%| unknown
d23.4s|     1 |     0 | 46431 |     - |conflict|   0 |  12k|  12k|  12k|   0 |  6 |   2 |   0 | 5.185108e+04 | 6.191000e+04 |  19.40%| unknown
L23.9s|     1 |     0 | 46431 |     - |    rens|   0 |  12k|  12k|  12k|   4 |  6 |   2 |   0 | 5.185108e+04 | 5.414400e+04 |   4.42%| unknown
 24.0s|     1 |     0 | 46431 |     - |   130M |   0 |  12k|  12k|  12k|   4 |  6 |   2 |   0 | 5.185108e+04 | 5.414400e+04 |   4.42%| unknown
 24.1s|     1 |     0 | 46431 |     - |   131M |   0 |  12k|  12k|6911 |   4 |  6 |   2 |   0 | 5.185108e+04 | 5.414400e+04 |   4.42%| unknown
 24.3s|     1 |     0 | 46522 |     - |   132M |   0 |  12k|6908 |6912 |   5 |  7 |   2 |   0 | 5.185836e+04 | 5.414400e+04 |   4.41%| unknown
 24.4s|     1 |     0 | 46522 |     - |   132M |   0 |  12k|6908 |6907 |   5 |  7 |   2 |   0 | 5.185836e+04 | 5.414400e+04 |   4.41%| unknown
(run 1, node 1) restarting after 6549 global fixings of integer variables

(restart) converted 5 cuts from the global cut pool into linear constraints

presolving:
(round 1, fast)       6549 del vars, 0 del conss, 0 add conss, 0 chg bounds, 0 chg sides, 161 chg coeffs, 0 upgd conss, 0 impls, 6229 clqs
   (24.4s) running MILP presolver
   (24.5s) MILP presolver found nothing
(round 2, exhaustive) 6549 del vars, 0 del conss, 0 add conss, 0 chg bounds, 0 chg sides, 161 chg coeffs, 5 upgd conss, 0 impls, 6229 clqs
presolving (3 rounds: 3 fast, 2 medium, 2 exhaustive):
 6549 deleted vars, 0 deleted constraints, 0 added constraints, 0 tightened bounds, 0 added holes, 0 changed sides, 161 changed coefficients
 0 implications, 6229 cliques
presolved problem has 6411 variables (6411 bin, 0 int, 0 impl, 0 cont) and 6235 constraints
      5 constraints of type <knapsack>
   6229 constraints of type <setppc>
      1 constraints of type <logicor>
transformed objective value is always integral (scale: 1)
Presolving Time: 0.67
transformed 4/6 original solutions to the transformed problem space

 time | node  | left  |LP iter|LP it/n|mem/heur|mdpt |vars |cons |rows |cuts |sepa|confs|strbr|  dualbound   | primalbound  |  gap   | compl. 
 25.2s|     1 |     0 | 49974 |     - |   134M |   0 |6411 |6235 |6234 |   0 |  0 |   2 |   0 | 5.185836e+04 | 5.414400e+04 |   4.41%| unknown
 25.3s|     1 |     0 | 49974 |     - |   134M |   0 |6411 |6235 |6181 |   0 |  0 |   2 |   0 | 5.185836e+04 | 5.414400e+04 |   4.41%| unknown
 25.5s|     1 |     0 | 50118 |     - |   135M |   0 |6411 |6182 |6182 |   1 |  1 |   2 |   0 | 5.187553e+04 | 5.414400e+04 |   4.37%| unknown
 25.5s|     1 |     0 | 50118 |     - |   135M |   0 |6411 |6182 |6170 |   1 |  1 |   2 |   0 | 5.187553e+04 | 5.414400e+04 |   4.37%| unknown
 25.7s|     1 |     0 | 50203 |     - |   136M |   0 |6411 |6170 |6171 |   2 |  2 |   2 |   0 | 5.188193e+04 | 5.414400e+04 |   4.36%| unknown
 25.7s|     1 |     0 | 50203 |     - |   136M |   0 |6411 |6170 |6162 |   2 |  2 |   2 |   0 | 5.188193e+04 | 5.414400e+04 |   4.36%| unknown
 25.9s|     1 |     0 | 50203 |     - |   136M |   0 |6411 |6161 |6162 |   2 |  3 |   2 |   0 | 5.188193e+04 | 5.414400e+04 |   4.36%| unknown
 26.0s|     1 |     0 | 50308 |     - |   136M |   0 |6411 |6161 |6164 |   4 |  5 |   2 |   0 | 5.188876e+04 | 5.414400e+04 |   4.35%| unknown
 26.1s|     1 |     0 | 50308 |     - |   137M |   0 |6411 |6161 |6161 |   4 |  5 |   2 |   0 | 5.188876e+04 | 5.414400e+04 |   4.35%| unknown
 26.3s|     1 |     0 | 50411 |     - |   137M |   0 |6411 |6158 |6162 |   5 |  6 |   2 |   0 | 5.189573e+04 | 5.414400e+04 |   4.33%| unknown
 26.3s|     1 |     0 | 50411 |     - |   137M |   0 |6411 |6158 |6159 |   5 |  6 |   2 |   0 | 5.189573e+04 | 5.414400e+04 |   4.33%| unknown
 26.5s|     1 |     0 | 50494 |     - |   138M |   0 |6411 |6155 |6160 |   6 |  7 |   2 |   0 | 5.190132e+04 | 5.414400e+04 |   4.32%| unknown
 26.5s|     1 |     0 | 50494 |     - |   138M |   0 |6411 |6155 |6158 |   6 |  7 |   2 |   0 | 5.190132e+04 | 5.414400e+04 |   4.32%| unknown
 26.7s|     1 |     0 | 50538 |     - |   139M |   0 |6411 |6153 |6159 |   7 |  8 |   2 |   0 | 5.190465e+04 | 5.414400e+04 |   4.31%| unknown
 26.7s|     1 |     0 | 50538 |     - |   139M |   0 |6411 |6153 |6158 |   7 |  8 |   2 |   0 | 5.190465e+04 | 5.414400e+04 |   4.31%| unknown
 time | node  | left  |LP iter|LP it/n|mem/heur|mdpt |vars |cons |rows |cuts |sepa|confs|strbr|  dualbound   | primalbound  |  gap   | compl. 
L28.6s|     1 |     0 | 53609 |     - |    rens|   0 |6411 |6143 |6158 |   7 | 10 |  12 |   0 | 5.190465e+04 | 5.362100e+04 |   3.31%| unknown
 28.6s|     1 |     0 | 53609 |     - |   139M |   0 |6411 |6143 |6158 |   7 | 10 |  12 |   0 | 5.190465e+04 | 5.362100e+04 |   3.31%| unknown
 28.7s|     1 |     0 | 53609 |     - |   139M |   0 |6411 |6143 |4943 |   7 | 10 |  12 |   0 | 5.190465e+04 | 5.362100e+04 |   3.31%| unknown
 28.8s|     1 |     0 | 53662 |     - |   140M |   0 |6411 |4928 |4944 |   8 | 11 |  12 |   0 | 5.190966e+04 | 5.362100e+04 |   3.30%| unknown
 28.9s|     1 |     0 | 53662 |     - |   140M |   0 |6411 |4928 |4942 |   8 | 11 |  12 |   0 | 5.190966e+04 | 5.362100e+04 |   3.30%| unknown
(run 2, node 1) restarting after 1721 global fixings of integer variables

(restart) converted 8 cuts from the global cut pool into linear constraints

presolving:
(round 1, fast)       1721 del vars, 0 del conss, 0 add conss, 0 chg bounds, 0 chg sides, 43 chg coeffs, 0 upgd conss, 0 impls, 4556 clqs
   (28.9s) running MILP presolver
   (28.9s) MILP presolver found nothing
(round 2, exhaustive) 1721 del vars, 0 del conss, 0 add conss, 0 chg bounds, 0 chg sides, 43 chg coeffs, 8 upgd conss, 0 impls, 4556 clqs
presolving (3 rounds: 3 fast, 2 medium, 2 exhaustive):
 1721 deleted vars, 0 deleted constraints, 0 added constraints, 0 tightened bounds, 0 added holes, 0 changed sides, 43 changed coefficients
 0 implications, 4556 cliques
presolved problem has 4690 variables (4690 bin, 0 int, 0 impl, 0 cont) and 4580 constraints
     13 constraints of type <knapsack>
   4556 constraints of type <setppc>
     11 constraints of type <logicor>
transformed objective value is always integral (scale: 1)
Presolving Time: 0.76
transformed 4/7 original solutions to the transformed problem space

 time | node  | left  |LP iter|LP it/n|mem/heur|mdpt |vars |cons |rows |cuts |sepa|confs|strbr|  dualbound   | primalbound  |  gap   | compl. 
 29.6s|     1 |     0 | 57182 |     - |   141M |   0 |4690 |4580 |4569 |   0 |  0 |  12 |   0 | 5.190966e+04 | 5.362100e+04 |   3.30%| unknown
 29.6s|     1 |     0 | 57182 |     - |   141M |   0 |4690 |4580 |4559 |   0 |  0 |  12 |   0 | 5.190966e+04 | 5.362100e+04 |   3.30%| unknown
 29.8s|     1 |     0 | 57215 |     - |   142M |   0 |4690 |4570 |4560 |   1 |  1 |  12 |   0 | 5.191099e+04 | 5.362100e+04 |   3.29%| unknown
 29.8s|     1 |     0 | 57215 |     - |   142M |   0 |4690 |4570 |4559 |   1 |  1 |  12 |   0 | 5.191099e+04 | 5.362100e+04 |   3.29%| unknown
 29.9s|     1 |     0 | 57235 |     - |   142M |   0 |4690 |4569 |4560 |   2 |  2 |  12 |   0 | 5.191160e+04 | 5.362100e+04 |   3.29%| unknown
 38.7s|     1 |     2 | 57235 |     - |   143M |   0 |4690 |4569 |4560 |   2 |  4 |  12 |  39 | 5.198257e+04 | 5.362100e+04 |   3.15%| unknown
*39.2s|     2 |     1 | 58547 |14811.7 |strongbr|   1 |4690 |4569 |4559 |   2 |  2 |  12 |  39 | 5.198257e+04 | 5.298500e+04 |   1.93%| unknown
*69.6s|    12 |     1 | 66844 |4056.3 |    LP  |   6 |4690 |4482 |4559 |   2 | 11 | 128 | 256 | 5.243050e+04 | 5.287200e+04 |   0.84%|  85.05%

SCIP Status        : problem is solved [optimal solution found]
Solving Time (sec) : 70.09
Solving Nodes      : 13 (total of 15 nodes in 3 runs)
Primal Bound       : +5.28720000000000e+04 (10 solutions)
Dual Bound         : +5.28720000000000e+04
Gap                : 0.00 %
Solve Status: optimal
Solve Time: 70.10 seconds
Objective Value: 52872.00
